(set-info :origin "driver benchmark extracted from Microsoft SDV")
(set-logic HORN)
(declare-fun Proc21 (Int Int Bool Int) Bool)
(declare-fun Proc7 (Int Int Bool Int Int Int) Bool)
(declare-fun Proc26 (Int Int Bool Int) Bool)
(declare-fun Proc23 (Int Int Bool Int) Bool)
(declare-fun Proc31 (Int Int Bool Int) Bool)
(declare-fun Proc14 (Int Int Bool) Bool)
(declare-fun Proc25 (Int Int Bool Int) Bool)
(declare-fun Proc24 (Int Int Bool Int) Bool)
(declare-fun Proc15 (Int Int Bool Int) Bool)
(declare-fun Proc9 (Int Int Bool Int Int Int Int Int) Bool)
(declare-fun Proc36 (Int Int Bool) Bool)
(declare-fun Proc37 (Int Int Bool) Bool)
(declare-fun Proc30 (Int Int Bool Int) Bool)
(declare-fun Proc22 (Int Int Bool Int) Bool)
(declare-fun Proc6 (Int Int Bool Int Int Int) Bool)
(declare-fun Proc19 (Int Int Bool Int) Bool)
(declare-fun Proc39 (Int Int Bool) Bool)
(declare-fun Proc20 (Int Int Bool Int) Bool)
(declare-fun Proc33 (Int Int Bool) Bool)
(declare-fun Proc35 (Int Int Bool Int Int Int Int Int) Bool)
(declare-fun Proc2 (Int Int Bool) Bool)
(declare-fun Proc12 (Int Int Bool Int) Bool)
(declare-fun Proc27 (Int Int Bool Int) Bool)
(declare-fun Proc40 (Int Int Bool Int Bool Int Int) Bool)
(declare-fun Proc16 (Int Int Bool Int) Bool)
(declare-fun Proc38 (Int Int Bool Int Int) Bool)
(declare-fun Proc17 (Int Int Bool Int Int) Bool)
(declare-fun Proc29 (Int Int Bool Int) Bool)
(declare-fun Proc18 (Int Int Bool Int Int Bool Int) Bool)
(declare-fun Proc11 (Int Int Bool Int Int Int Int) Bool)
(declare-fun Proc13 (Int Int Bool) Bool)
(declare-fun Proc10 (Int Int Bool Int Int) Bool)
(declare-fun Proc3 (Int Int Bool Int Int) Bool)
(declare-fun Proc34 (Int Int Bool Int Int) Bool)
(declare-fun Proc0 (Int Int Bool Int Int Int Int Int Int) Bool)
(declare-fun Proc8 (Int Int Bool Int Int Int Int) Bool)
(declare-fun Proc4 (Int Int Bool Int Int Int) Bool)
(declare-fun Proc32 (Int Int Bool Int) Bool)
(declare-fun Proc1 (Int Int Bool Int Int) Bool)
(declare-fun Proc28 (Int Int Bool Int) Bool)
(declare-fun Proc5 (Int Int Bool Int Int Int Int) Bool)
(assert (forall ((A Int)
         (B Int)
         (C Int)
         (D Int)
         (E Int)
         (F Int)
         (G Int)
         (H Int)
         (I Int)
         (J Int)
         (K Int)
         (L Int)
         (M Bool))
  (let ((a!1 (not (and (= I (- 1073741801)) (= H I))))
        (a!4 (not (and (= F (- 1073741811)) (= H F))))
        (a!6 (not (and (= E (- 1073741816)) (= H E)))))
  (let ((a!2 (and (or a!1 (not (= G H))) (or (not (= H 0)) (not (= G H))))))
  (let ((a!3 (and (or (= J 0) a!2)
                  (or (not (= J 0)) (not (= H 0)) (not (= G H))))))
  (let ((a!5 (and (or (not (<= K 128)) a!3) (or (<= K 128) a!4 (not (= G H))))))
  (let ((a!7 (and (or (= L 0) a!5) (or (not (= L 0)) a!6 (not (= G H))))))
    (=> (not (or (not M) a!7)) (Proc0 D C M L B J K A G)))))))))
(assert (forall ((A Int)
         (B Int)
         (C Int)
         (D Int)
         (E Int)
         (F Int)
         (G Int)
         (H Int)
         (I Int)
         (J Int)
         (K Int)
         (L Int)
         (M Bool)
         (N Int))
  (let ((a!1 (not (and (not (= K 0)) (not (= J 0)))))
        (a!2 (and (or (= E 0)
                      (not (Proc5 N L M D C 0 B))
                      (= K 0)
                      (not (Proc3 N L M K 0))
                      (not (= H 0)))
                  (or (not (= E 0))
                      (= K 0)
                      (not (Proc3 N L M K 0))
                      (not (= H 0))))))
  (let ((a!3 (and (or (not (Proc4 N L M G F E)) a!2)
                  (or (= K 0) (not (Proc3 N L M K 0)) (not (= H 0))))))
  (let ((a!4 (and (or (= I 2236420)
                      (= K 0)
                      (not (Proc3 N L M K 0))
                      (not (= H 0)))
                  (or (not (= I 2236420)) a!3))))
  (let ((a!5 (not (or (not M)
                      (not (Proc1 N L M K J))
                      (= J 0)
                      (not (Proc2 N L M))
                      a!1
                      a!4))))
    (=> a!5 (Proc6 N L M A K H))))))))
(assert (forall ((A Int)
         (B Int)
         (C Int)
         (D Int)
         (E Int)
         (F Int)
         (G Int)
         (H Int)
         (I Int)
         (J Int)
         (K Int)
         (L Int)
         (M Bool)
         (N Int)
         (O Int))
  (let ((a!1 (and (not (<= L (+ 1 O))) (not (<= L N))))
        (a!2 (and (not (<= G (+ 1 H))) (not (<= G I))))
        (a!3 (not (and (= D 0) (= C F) (= B E)))))
  (let ((a!4 (and (or (not (= E 1)) a!3) (or (= E 1) a!3))))
  (let ((a!5 (not (or (not M)
                      (not (= O N))
                      (not a!1)
                      (not (Proc7 L K M O J I))
                      (not (Proc2 I K M))
                      (= J 0)
                      (not (Proc3 I K M J 0))
                      (not (= H I))
                      (not a!2)
                      (not (Proc8 G K M H 0 F E))
                      a!4))))
    (=> a!5 (Proc9 N K M A J D C B)))))))
(assert (forall ((A Int) (B Int) (C Int) (D Int) (E Int) (F Int) (M Bool))
  (let ((a!1 (not (and (not (= F 0)) (not (= E 0)))))
        (a!2 (and (or (not (= D 1)) (not (= C D)))
                  (or (not (= D 0)) (not (= C D))))))
  (let ((a!3 (and (or (not (= D 0)) (not (= C D)))
                  (or (= F 0) a!2)
                  (or (not (= D 1)) (not (= C D))))))
  (let ((a!4 (and (or (not (= D 0)) (not (= C D))) (or (= E 0) a!3))))
  (let ((a!5 (or (not M) a!1 (and (or (= F 0) a!4) (or (= E 0) a!3)))))
    (=> (not a!5) (Proc4 B A M F E C))))))))
(assert (forall ((A Int)
         (B Int)
         (C Int)
         (D Int)
         (E Int)
         (F Int)
         (G Int)
         (H Int)
         (I Int)
         (M Bool))
  (let ((a!1 (and (not (<= G (+ 1 I))) (not (<= G H)))))
  (let ((a!2 (or (not M)
                 (not (= I H))
                 (not a!1)
                 (not (Proc10 G F M I E))
                 (not (and (= D G) (= C E))))))
    (=> (not a!2) (Proc11 H F M B A D C))))))
(assert (forall ((A Int) (B Int) (C Int) (D Int) (M Bool))
  (let ((a!1 (not (or (not M) (not (= D 1))))))
    (=> a!1 (Proc10 C B M A D)))))
(assert (forall ((A Int) (B Int) (C Int) (M Bool)) (=> false (Proc12 C B M A))))
(assert (forall ((A Int)
         (B Int)
         (C Int)
         (D Int)
         (E Int)
         (F Int)
         (G Int)
         (H Int)
         (I Int)
         (M Bool))
  (let ((a!1 (and (not (<= C (+ 1 D))) (not (<= C F)))))
  (let ((a!2 (or (not (= D F))
                 (not a!1)
                 (not (and (Proc12 C B M D) (= G C)))
                 (not (= E G)))))
  (let ((a!3 (and (or (not (= G F)) (not (= E G))) a!2)))
    (=> (not (or (not M) (= I 0) (= H 0) a!3)) (Proc7 F B M A I E)))))))
(assert (forall ((A Int)
         (B Int)
         (C Int)
         (D Int)
         (E Int)
         (F Int)
         (G Int)
         (H Int)
         (I Int)
         (J Int)
         (K Int)
         (L Int)
         (M Bool)
         (N Int)
         (O Int))
  (let ((a!1 (and (not (<= K (+ 1 N))) (not (<= K L))))
        (a!3 (or (not (= C 1))
                 (not (and (= I D) (= H C)))
                 (not (and (= G I) (= F H)))))
        (a!4 (or (= C 1)
                 (not (and (= I D) (= H C)))
                 (not (and (= G I) (= F H)))))
        (a!7 (and (not (<= A (+ 1 B))) (not (<= A L)))))
  (let ((a!2 (or (not (= O 259))
                 (not (= N L))
                 (not a!1)
                 (not (Proc12 K J M N))
                 (not (and (= I K) (= H J)))
                 (not (and (= G I) (= F H)))))
        (a!6 (or (not (= O 0))
                 (not (= N L))
                 (not a!1)
                 (not (Proc12 K J M N))
                 (not (and (= I K) (= H J)))
                 (not (and (= G I) (= F H)))))
        (a!8 (or (not (= B L))
                 (not a!7)
                 (not (Proc12 A J M B))
                 (not (and (= I A) (= H J)))
                 (not (and (= G I) (= F H))))))
  (let ((a!5 (and a!2 (or (= O 259) (not (Proc11 L J M E O D C)) (and a!3 a!4)))))
  (let ((a!9 (or (not M) (and (or (= O 0) a!5) a!6 a!8))))
    (=> (not a!9) (Proc8 L J M E O G F))))))))
(assert (forall ((A Int) (B Int) (C Int) (D Int) (E Int) (F Int) (G Int) (M Bool))
  (let ((a!1 (not (or (not M) (not (Proc0 G F M E D C 0 0 B)) (not (= A B))))))
    (=> a!1 (Proc5 G F M E D C A)))))
(assert (forall ((A Int) (B Int) (M Bool)) (=> M (Proc13 B A M))))
(assert (forall ((A Int) (B Int) (M Bool)) (=> M (Proc14 B A M))))
(assert (forall ((A Int) (B Int) (C Int) (M Bool))
  (let ((a!1 (not (or (not M) (not (= C 0))))))
    (=> a!1 (Proc15 B A M C)))))
(assert (forall ((A Int)
         (B Int)
         (C Int)
         (D Int)
         (E Int)
         (F Int)
         (G Int)
         (H Int)
         (I Int)
         (J Int)
         (K Int)
         (L Int)
         (M Bool)
         (P Bool)
         (Q Bool)
         (R Bool))
  (let ((a!1 (not (and (not (<= L 0)) (Proc16 L K R J))))
        (a!2 (not (and (= D F) (= C G) (= P Q) (= B H)))))
  (let ((a!3 (or (= G 0) (not (and (= F E) (not Q))) a!2))
        (a!4 (or (not (and (= G 0) (= M R))) (not (and (= F A) (= Q M))) a!2)))
  (let ((a!5 (and (or (= G 1) (and a!3 a!4)) (or (not (= G 1)) (and a!3 a!4)))))
  (let ((a!6 (not (or (not R)
                      a!1
                      (not (Proc15 J K R I))
                      (not (Proc14 J I R))
                      (not (Proc13 J I R))
                      (not (Proc17 J I R H G))
                      a!5))))
    (=> a!6 (Proc18 L K R D C P B))))))))
(assert (forall ((A Int) (B Int) (C Int) (M Bool))
  (let ((a!1 (not (or (not M) (not (= C 0))))))
    (=> a!1 (Proc19 B A M C)))))
(assert (forall ((A Int) (B Int) (C Int) (M Bool))
  (let ((a!1 (not (or (not M) (not (= C 0))))))
    (=> a!1 (Proc20 B A M C)))))
(assert (forall ((A Int) (B Int) (C Int) (M Bool))
  (let ((a!1 (not (or (not M) (not (= C 1))))))
    (=> a!1 (Proc21 B A M C)))))
(assert (forall ((A Int) (B Int) (C Int) (M Bool))
  (let ((a!1 (not (or (not M) (not (= C 0))))))
    (=> a!1 (Proc22 B A M C)))))
(assert (forall ((A Int) (B Int) (C Int) (M Bool))
  (let ((a!1 (not (or (not M) (not (= C 1))))))
    (=> a!1 (Proc23 B A M C)))))
(assert (forall ((A Int) (B Int) (C Int) (M Bool))
  (let ((a!1 (not (or (not M) (not (= C 0))))))
    (=> a!1 (Proc24 B A M C)))))
(assert (forall ((A Int) (B Int) (C Int) (M Bool))
  (let ((a!1 (not (or (not M) (not (= C 0))))))
    (=> a!1 (Proc25 B A M C)))))
(assert (forall ((A Int) (B Int) (C Int) (M Bool))
  (let ((a!1 (not (or (not M) (not (= C 0))))))
    (=> a!1 (Proc26 B A M C)))))
(assert (forall ((A Int) (B Int) (C Int) (M Bool))
  (let ((a!1 (not (or (not M) (not (= C 0))))))
    (=> a!1 (Proc27 B A M C)))))
(assert (forall ((A Int) (B Int) (C Int) (M Bool))
  (let ((a!1 (not (or (not M) (not (= C 0))))))
    (=> a!1 (Proc28 B A M C)))))
(assert (forall ((A Int) (B Int) (C Int) (M Bool))
  (let ((a!1 (not (or (not M) (not (= C 0))))))
    (=> a!1 (Proc29 B A M C)))))
(assert (forall ((A Int) (B Int) (C Int) (D Int) (M Bool))
  (let ((a!1 (or (not M) (not (= D (- 1073741823))) (not (= C D)))))
    (=> (not a!1) (Proc30 B A M C)))))
(assert (forall ((A Int) (B Int) (C Int) (D Int) (M Bool)) (=> M (Proc3 D C M B A))))
(assert (forall ((A Int) (B Int) (C Int) (M Bool))
  (let ((a!1 (not (or (not M) (not (= C 0))))))
    (=> a!1 (Proc31 B A M C)))))
(assert (forall ((A Int) (B Int) (C Int) (D Int) (E Int) (M Bool))
  (let ((a!1 (not (or (not M) (= E 0) (not (= D C))))))
    (=> a!1 (Proc1 B A M E D)))))
(assert (forall ((A Int)
         (B Int)
         (C Int)
         (D Int)
         (E Int)
         (F Int)
         (G Int)
         (H Int)
         (I Int)
         (J Int)
         (K Int)
         (L Int)
         (M Bool)
         (N Int)
         (O Int)
         (S Int)
         (T Int)
         (U Int)
         (V Int)
         (W Int)
         (X Int)
         (Y Int)
         (Z Int)
         (A1 Int)
         (B1 Int)
         (C1 Int)
         (D1 Int)
         (E1 Int)
         (F1 Int)
         (G1 Int)
         (H1 Int)
         (I1 Int)
         (J1 Int)
         (K1 Int)
         (L1 Int)
         (M1 Int)
         (N1 Int)
         (O1 Int)
         (P1 Int))
  (let ((a!1 (not (and (= D1 H1) (= C1 F1) (= B1 E1))))
        (a!3 (not (and (not (= I1 1)) (= A1 K1) (= Z J1) (= Y I1))))
        (a!6 (not (and (not (= V 1)) (= A1 X) (= Z W) (= Y V)))))
  (let ((a!2 (or (not (and (= I1 1) (= H1 G1) (= F1 J1) (= E1 I1))) a!1))
        (a!4 (or a!3
                 (not (Proc34 Z Y M A1 P1))
                 (= P1 0)
                 (not (= H1 A1))
                 (not (and (= F1 Z) (= E1 Y)))
                 a!1))
        (a!5 (or (not (and (= V 1) (= H1 G1) (= F1 W) (= E1 V))) a!1))
        (a!7 (or a!6
                 (not (Proc34 Z Y M A1 P1))
                 (= P1 0)
                 (not (= H1 A1))
                 (not (and (= F1 Z) (= E1 Y)))
                 a!1))
        (a!8 (or (= M1 0)
                 (not (Proc30 O1 N1 M U))
                 (not (= A1 U))
                 (not (and (= Z O1) (= Y N1)))
                 (not (Proc34 Z Y M A1 P1))
                 (= P1 0)
                 (not (= H1 A1))
                 (not (and (= F1 Z) (= E1 Y)))
                 a!1))
        (a!9 (or (= M1 0)
                 (not (Proc30 O1 N1 M T))
                 (not (= A1 T))
                 (not (and (= Z O1) (= Y N1)))
                 (not (Proc34 Z Y M A1 P1))
                 (= P1 0)
                 (not (= H1 A1))
                 (not (and (= F1 Z) (= E1 Y)))
                 a!1))
        (a!10 (or (= M1 0)
                  (not (Proc30 O1 N1 M S))
                  (not (= A1 S))
                  (not (and (= Z O1) (= Y N1)))
                  (not (Proc34 Z Y M A1 P1))
                  (= P1 0)
                  (not (= H1 A1))
                  (not (and (= F1 Z) (= E1 Y)))
                  a!1))
        (a!11 (or (= M1 0)
                  (not (Proc30 O1 N1 M O))
                  (not (= A1 O))
                  (not (and (= Z O1) (= Y N1)))
                  (not (Proc34 Z Y M A1 P1))
                  (= P1 0)
                  (not (= H1 A1))
                  (not (and (= F1 Z) (= E1 Y)))
                  a!1))
        (a!12 (or (= M1 0)
                  (not (Proc30 O1 N1 M N))
                  (not (= A1 N))
                  (not (and (= Z O1) (= Y N1)))
                  (not (Proc34 Z Y M A1 P1))
                  (= P1 0)
                  (not (= H1 A1))
                  (not (and (= F1 Z) (= E1 Y)))
                  a!1))
        (a!13 (or (not (Proc30 O1 N1 M L))
                  (not (= A1 L))
                  (not (and (= Z O1) (= Y N1)))
                  (not (Proc34 Z Y M A1 P1))
                  (= P1 0)
                  (not (= H1 A1))
                  (not (and (= F1 Z) (= E1 Y)))
                  a!1))
        (a!14 (or (= M1 0)
                  (not (Proc6 O1 N1 M L1 P1 K))
                  (not (= A1 K))
                  (not (and (= Z O1) (= Y N1)))
                  (not (Proc34 Z Y M A1 P1))
                  (= P1 0)
                  (not (= H1 A1))
                  (not (and (= F1 Z) (= E1 Y)))
                  a!1))
        (a!15 (or (= M1 0)
                  (not (Proc30 O1 N1 M J))
                  (not (= A1 J))
                  (not (and (= Z O1) (= Y N1)))
                  (not (Proc34 Z Y M A1 P1))
                  (= P1 0)
                  (not (= H1 A1))
                  (not (and (= F1 Z) (= E1 Y)))
                  a!1))
        (a!16 (or (= M1 0)
                  (not (Proc30 O1 N1 M I))
                  (not (= A1 I))
                  (not (and (= Z O1) (= Y N1)))
                  (not (Proc34 Z Y M A1 P1))
                  (= P1 0)
                  (not (= H1 A1))
                  (not (and (= F1 Z) (= E1 Y)))
                  a!1))
        (a!17 (or (not (Proc30 O1 N1 M H))
                  (not (= A1 H))
                  (not (and (= Z O1) (= Y N1)))
                  (not (Proc34 Z Y M A1 P1))
                  (= P1 0)
                  (not (= H1 A1))
                  (not (and (= F1 Z) (= E1 Y)))
                  a!1))
        (a!18 (or (= M1 0)
                  (not (Proc30 O1 N1 M G))
                  (not (= A1 G))
                  (not (and (= Z O1) (= Y N1)))
                  (not (Proc34 Z Y M A1 P1))
                  (= P1 0)
                  (not (= H1 A1))
                  (not (and (= F1 Z) (= E1 Y)))
                  a!1))
        (a!19 (or (= M1 0)
                  (not (Proc30 O1 N1 M F))
                  (not (= A1 F))
                  (not (and (= Z O1) (= Y N1)))
                  (not (Proc34 Z Y M A1 P1))
                  (= P1 0)
                  (not (= H1 A1))
                  (not (and (= F1 Z) (= E1 Y)))
                  a!1))
        (a!20 (or (= M1 0)
                  (not (Proc30 O1 N1 M E))
                  (not (= A1 E))
                  (not (and (= Z O1) (= Y N1)))
                  (not (Proc34 Z Y M A1 P1))
                  (= P1 0)
                  (not (= H1 A1))
                  (not (and (= F1 Z) (= E1 Y)))
                  a!1))
        (a!21 (or (not (Proc30 O1 N1 M D))
                  (not (= A1 D))
                  (not (and (= Z O1) (= Y N1)))
                  (not (Proc34 Z Y M A1 P1))
                  (= P1 0)
                  (not (= H1 A1))
                  (not (and (= F1 Z) (= E1 Y)))
                  a!1))
        (a!22 (or (= M1 0)
                  (not (Proc30 O1 N1 M C))
                  (not (= A1 C))
                  (not (and (= Z O1) (= Y N1)))
                  (not (Proc34 Z Y M A1 P1))
                  (= P1 0)
                  (not (= H1 A1))
                  (not (and (= F1 Z) (= E1 Y)))
                  a!1))
        (a!23 (or (not (= B 1))
                  (= B 0)
                  (= M1 0)
                  (not (Proc30 O1 N1 M C))
                  (not (= A1 C))
                  (not (and (= Z O1) (= Y N1)))
                  (not (Proc34 Z Y M A1 P1))
                  (= P1 0)
                  (not (= H1 A1))
                  (not (and (= F1 Z) (= E1 Y)))
                  a!1)))
  (let ((a!24 (and (or (= M1 0) (and a!22 a!23))
                   (or (not (= A 1)) (= A 0) (= M1 0) (and a!22 a!23)))))
  (let ((a!25 (and (or (= M1 0)
                       (not (Proc9 O1 N1 M L1 P1 K1 J1 I1))
                       (and a!2 a!4))
                   (or (= M1 0) (not (Proc9 O1 N1 M L1 P1 X W V)) (and a!5 a!7))
                   a!8
                   a!9
                   a!10
                   a!11
                   a!12
                   a!13
                   a!14
                   a!15
                   a!16
                   a!17
                   a!18
                   a!19
                   a!20
                   a!21
                   (or (= M1 0) a!24))))
  (let ((a!26 (not (or (not M)
                       (= P1 0)
                       (not (Proc32 O1 N1 M P1))
                       (= M1 0)
                       (not (Proc33 O1 N1 M))
                       a!25))))
    (=> a!26 (Proc35 O1 N1 M L1 P1 D1 C1 B1)))))))))
(assert (forall ((A Int) (B Int) (C Int) (D Int) (E Int) (M Bool))
  (let ((a!1 (not (or (not M)
                      (not (Proc36 E D M))
                      (not (Proc30 E D M C))
                      (not (Proc37 E D M))))))
    (=> a!1 (Proc38 E D M B A)))))
(assert (forall ((A Int) (B Int) (C Int) (M Bool))
  (=> (not (or (not M) (= C 0))) (Proc32 B A M C))))
(assert (forall ((A Int) (B Int) (M Bool)) (=> M (Proc2 B A M))))
(assert (forall ((A Int)
         (B Int)
         (C Int)
         (D Int)
         (E Int)
         (F Int)
         (G Int)
         (H Int)
         (I Int)
         (J Int)
         (K Int)
         (L Int)
         (M Bool)
         (N Int)
         (O Int)
         (S Int)
         (T Int)
         (U Int)
         (V Int)
         (W Int)
         (X Int)
         (Y Int)
         (Z Int)
         (A1 Int)
         (B1 Int)
         (C1 Int))
  (let ((a!1 (or (not (= G 1))
                 (not (and (= F G) (= E H)))
                 (not (and (= D E) (= C F)))))
        (a!2 (or (= G 1)
                 (not (and (= F G) (= E H)))
                 (not (and (= D E) (= C F)))))
        (a!3 (or (not (= A1 0))
                 (not (and (= F B1) (= E C1)))
                 (not (and (= D E) (= C F)))))
        (a!4 (or (= Z 0)
                 (not (Proc39 C1 B1 M))
                 (not (Proc38 C1 B1 M B A))
                 (not (and (= F B1) (= E C1)))
                 (not (and (= D E) (= C F)))))
        (a!5 (or (not (= Z 0))
                 (not (and (= F B1) (= E C1)))
                 (not (and (= D E) (= C F)))))
        (a!6 (or (not (and (= F B1) (= E C1))) (not (and (= D E) (= C F))))))
  (let ((a!7 (and (or (= A1 0)
                      (not (Proc39 C1 B1 M))
                      (not (Proc35 C1 B1 M K J I H G))
                      (and a!1 a!2))
                  a!3
                  a!4
                  a!5
                  a!6)))
  (let ((a!8 (not (or (not M)
                      (not (Proc21 C1 B1 M A1))
                      (not (Proc28 C1 B1 M Z))
                      (not (Proc22 C1 B1 M Y))
                      (not (Proc27 C1 B1 M X))
                      (not (Proc20 C1 B1 M W))
                      (not (Proc24 C1 B1 M V))
                      (not (Proc31 C1 B1 M U))
                      (not (Proc29 C1 B1 M T))
                      (not (Proc19 C1 B1 M S))
                      (not (Proc25 C1 B1 M O))
                      (not (Proc26 C1 B1 M N))
                      (not (Proc23 C1 B1 M L))
                      a!7))))
    (=> a!8 (Proc17 C1 B1 M D C)))))))
(assert (forall ((A Int) (B Int) (M Bool)) (=> M (Proc33 B A M))))
(assert (forall ((A Int) (B Int) (C Int) (D Int) (M Bool)) (=> M (Proc34 D C M B A))))
(assert (forall ((A Int) (B Int) (M Bool)) (=> M (Proc39 B A M))))
(assert (forall ((A Int) (B Int) (M Bool)) (=> M (Proc36 B A M))))
(assert (forall ((A Int) (B Int) (M Bool)) (=> M (Proc37 B A M))))
(assert (forall ((A Int)
         (B Int)
         (C Int)
         (D Int)
         (E Int)
         (F Int)
         (G Int)
         (H Int)
         (I Int)
         (J Int)
         (K Int)
         (L Int)
         (M Bool)
         (N Int)
         (O Int)
         (S Int)
         (T Int)
         (U Int)
         (V Int)
         (W Int)
         (X Int)
         (Y Int)
         (Z Int)
         (A1 Int)
         (B1 Int)
         (C1 Int)
         (D1 Int)
         (E1 Int)
         (F1 Int)
         (G1 Int)
         (H1 Int)
         (I1 Int)
         (J1 Int)
         (K1 Int)
         (L1 Int)
         (M1 Int)
         (N1 Int)
         (O1 Int)
         (P1 Int)
         (Q1 Int)
         (R1 Int)
         (S1 Int)
         (T1 Int)
         (U1 Int)
         (V1 Int)
         (W1 Int)
         (X1 Int)
         (Y1 Int)
         (Z1 Int)
         (A2 Int)
         (B2 Int)
         (C2 Int)
         (D2 Int)
         (E2 Int)
         (F2 Int)
         (G2 Int))
  (let ((a!1 (and (= G2 F2) (not (<= E2 (+ 32 G2)))))
        (a!2 (and (not (<= E2 F2))
                  (= D2 E2)
                  (not (<= C2 (+ 16 D2)))
                  (not (<= C2 E2))))
        (a!3 (and (= B2 C2)
                  (not (<= A2 (+ 28 B2)))
                  (not (<= A2 C2))
                  (= Z1 A2)
                  (not (<= Y1 (+ 4 Z1)))
                  (not (<= Y1 A2))
                  (= X1 Y1)
                  (not (<= W1 (+ 332 X1)))))
        (a!4 (and (not (<= W1 Y1))
                  (= V1 W1)
                  (not (<= U1 (+ 4 V1)))
                  (not (<= U1 W1))
                  (= T1 U1)
                  (not (<= S1 (+ 536 T1)))
                  (not (<= S1 U1))
                  (= R1 S1)
                  (not (<= Q1 (+ 240 R1)))
                  (not (<= Q1 S1))
                  (= P1 Q1)
                  (not (<= O1 (+ 240 P1)))
                  (not (<= O1 Q1))
                  (= N1 O1)
                  (not (<= M1 (+ 240 N1)))
                  (not (<= M1 O1))
                  (= L1 M1)
                  (not (<= K1 (+ 4 L1)))
                  (not (<= K1 M1))
                  (= J1 K1)
                  (not (<= I1 (+ 536 J1)))
                  (not (<= I1 K1))
                  (= H1 I1)
                  (not (<= G1 (+ 332 H1)))
                  (not (<= G1 I1))
                  (= F1 G1)
                  (not (<= E1 (+ 240 F1)))
                  (not (<= E1 G1))
                  (= D1 E1)
                  (not (<= C1 (+ 240 D1)))
                  (not (<= C1 E1))
                  (= B1 C1)
                  (not (<= A1 (+ 332 B1)))
                  (not (<= A1 C1))
                  (= Z A1)
                  (not (<= Y (+ 4 Z)))
                  (not (<= Y A1))
                  (= X Y)
                  (not (<= W (+ 240 X)))
                  (not (<= W Y))
                  (= V W)
                  (not (<= U (+ 240 V)))
                  (not (<= U W))
                  (= T U)
                  (not (<= S (+ 240 T)))
                  (not (<= S U))
                  (= O S)
                  (not (<= N (+ 240 O)))
                  (not (<= N S))
                  (= L N)
                  (not (<= K (+ 240 L)))
                  (not (<= K N))
                  (= J K)
                  (not (<= I (+ 40 J)))
                  (not (<= I K))
                  (= H I)
                  (not (<= G (+ 332 H)))
                  (not (<= G I))
                  (= F G)
                  (not (<= E (+ 4 F)))
                  (not (<= E G))
                  (= D E)
                  (not (<= C (+ 40 D)))
                  (not (<= C E)))))
  (let ((a!5 (not (or (not M)
                      (not a!1)
                      (not a!2)
                      (not a!3)
                      (not a!4)
                      (not (= B C))))))
    (=> a!5 (Proc16 F2 A M B))))))
(assert (forall ((A Int)
         (B Int)
         (C Int)
         (D Int)
         (E Int)
         (F Int)
         (G Int)
         (H Int)
         (M Bool)
         (P Bool)
         (Q Bool))
  (let ((a!1 (or (not Q) (not (and (Proc18 H G true F E P D) (not P))))))
    (=> (not a!1) (Proc40 H G Q C M B A)))))
(assert (let ((a!1 (exists ((V0 Int)
                    (V1 Int)
                    (V2 Bool)
                    (V3 Int)
                    (V4 Bool)
                    (V5 Int)
                    (V6 Int))
             (not (=> (and (Proc40 V0 V1 V2 V3 V4 V5 V6) (not false)) false)))))
  (not a!1)))

(check-sat)
